N = 7;
H = 5;
T = 2;

avail = array3d(1..N, 1..H, 1..T, [4, 5, 7, 7, 2, 5, 1, 1, 4, 3, 9, 6, 0, 2, 4, 9, 0, 7, 6, 5, 2, 1, 0, 7, 5, 5, 9, 1, 9, 1, 10, 4, 0, 4, 1, 10, 2, 9, 1, 3, 3, 6, 5, 7, 10, 7, 5, 3, 1, 7, 4, 10, 8, 0, 0, 1, 6, 7, 3, 6, 5, 8, 4, 7, 5, 4, 4, 6, 1, 3]);

r = array2d(1..H, 1..T, [2, 0, 2, 2, 0, 2, 3, 1, 3, 0]);
